12546 0 1 50 60	74 86 102 121 139 160 173 188 200 218 238 256
12787 1 2 100 112 130 148 163 190 212 224 242
15847 0 3 250 262 275 295 319 333 350 367 383
15514 1 1 250 263 283 301 313 328 341 362 380 399 415 427 441 456
25486 0 2 250 263 275 297 324 339 357 375 392
25546 1 3 600 611 628 645 659 683 703 716 733
36789 0 1 700 710 724 736 752 771 789 810 823 838 850 868 888 906
65465 1 2 400 412 430 448 463 490 512 524 542
79458 0 3 700 712 725 745 769 783 800 817 833
98412 1 1 1450 1463 1483 1501 1513 1528 1541 1562 1580 1599 1615 1627 1641 1656